5 5
4 45 0 98 3 2 2 9 1 79
1 31 3 36 2 15 4 97 0 62
1 31 3 27 4 2 0 73 2 43
2 1 0 83 4 9 1 60 3 2
0 58 2 65 1 12 3 55 4 90
-1
0 1 3 4 5
0 1 3 4 5
0 3 5
0 2 4 5
0 1 5
-2
64 187 177 339
34 126 247 267
87 256
128 240 187
68 357

374 6
20 1 16 13 9
5 10 22 4 18
15 7 21 3 14
6 11 2 23 19
0 12 8 17 24
